5 6 92
4 2 1 3 2 3 3 3 4 12 32 32 54 54 72 72 86 
6 3 1 4 1 4 2 4 3 4 4 1 3 4 18 22 36 36 48 48 66 66 78 78 92 
5 5 1 1 1 2 2 5 4 5 5 5 21 21 41 41 59 59 75 75 91 
4 5 2 5 3 1 2 2 3 24 40 40 56 56 74 74 90 
11 5 1 1 1 1 1 4 1 4 1 2 2 2 2 1 2 2 3 2 3 1 3 0 5 5 9 9 14 14 18 18 22 29 32 32 36 41 44 56 59 59 62 74 78 
9 3 1 2 1 2 1 5 2 5 2 3 2 3 2 5 4 5 4 0 4 4 9 9 12 17 21 21 24 24 28 28 31 51 56 56 59 
